datasets/2-dimensional/CL_10_24_02.vbp
2
100 100 
24
49 47 30
44 47 72
27 46 4
28 46 88
43 26 54
43 32 64
43 41 90
35 43 26
42 40 94
40 42 28
29 39 72
39 26 49
39 30 54
32 36 19
34 36 28
35 33 61
33 28 84
31 21 23
30 28 67
28 29 53
18 29 54
23 27 16
24 17 9
11 11 54
