datasets/2-dimensional/CL_10_24_02.txt
100 100 
0 30 49 47 
1 72 44 47 
2 4 27 46 
3 88 28 46 
4 54 43 26 
5 64 43 32 
6 90 43 41 
7 26 35 43 
8 94 42 40 
9 28 40 42 
10 72 29 39 
11 49 39 26 
12 54 39 30 
13 19 32 36 
14 28 34 36 
15 61 35 33 
16 84 33 28 
17 23 31 21 
18 67 30 28 
19 53 28 29 
20 54 18 29 
21 16 23 27 
22 9 24 17 
23 54 11 11 
